
%FILE DATA:	Soccer Computational Problem for MiniZinc Models	%
%AUTHOR:	Jack Wall	%
%CONTACT:  	116397063@umail.ucc.ie			%
%LAST UPDATE:	02/19/2020, 12:16:33						%
%DESCRIPTION: 	70 games played with 20 games left				%


n=10; %number of teams

%Games to play
games=[|3,10|7,3|9,5|7,6|2,7|4,6|4,5|5,4|9,3|1,6|9,10|6,4|1,10|8,6|2,4|10,8|5,7|6,7|3,2|5,9|];

%Initial points
iPoints=[20,15,23,18,14,19,15,19,17,26];

%POSITION CONSTRAINTS
% [|teamID, operator, position|...]
% operators index:
%  1 for =  operator
%  2 for >  operator
%  3 for >= operator
%  4 for <  operator
%  5 for <= operator
positionConstraints=[|10,5,1|6,4,3|9,3,3|];